64018.95,43.19,52.37
55524.1,49.79,60.38
56409.21,49.01,59.43
46232.8,59.8,72.52
48517.51,56.98,69.1
52430.04,52.73,63.94
53732.23,51.45,62.4
57358.23,48.2,58.45
49569.85,55.77,67.63
56207.07,49.19,59.65
56778.84,48.69,59.05
56205.75,49.19,59.65
59100.74,46.78,56.73
57137.41,48.39,58.68
54394.78,50.83,61.64
52482.25,52.68,63.88
48397.45,57.12,69.27
59829.5,46.21,56.04
55719.45,49.62,60.17
57922.81,47.73,57.88
